assignmentCost = array1d(1..32, [0, 0, 100, 0, 0, 50, 0, 0, 50, 0, 0, 50, 0, 0, 50, 0, 0, 50, 0, 0, 100, 0, 0, 0, 0, 0, 0, 0, 0, 20, 20, 20]);
transferCost = array1d(1..32, [5, 5, 0, 5, 5, 20, 5, 5, 20, 5, 5, 20, 5, 5, 20, 5, 5, 20, 5, 5, 0, 5, 5, 5, 5, 5, 5, 5, 5, 20, 20, 20]);
